p edge 160
e 0 1
e 0 2
e 0 86
e 0 137
e 0 138
e 1 2
e 1 3
e 1 27
e 1 54
e 1 86
e 1 103
e 1 104
e 1 125
e 1 137
e 1 138
e 2 3
e 2 138
e 3 138
e 4 5
e 4 6
e 4 19
e 4 20
e 4 27
e 4 65
e 4 74
e 4 96
e 4 104
e 4 123
e 4 131
e 4 132
e 4 134
e 5 6
e 5 63
e 5 64
e 5 65
e 5 66
e 5 132
e 6 65
e 6 66
e 7 38
e 7 71
e 7 135
e 7 139
e 8 97
e 8 136
e 8 139
e 8 140
e 8 155
e 9 10
e 9 11
e 9 13
e 9 132
e 9 134
e 10 12
e 10 132
e 10 133
e 11 12
e 11 13
e 11 133
e 12 133
e 13 130
e 13 133
e 13 134
e 14 16
e 14 21
e 14 24
e 14 46
e 14 53
e 14 60
e 14 116
e 15 115
e 15 116
e 17 102
e 17 117
e 17 119
e 17 120
e 17 124
e 17 157
e 18 118
e 18 121
e 18 122
e 18 157
e 19 20
e 21 22
e 21 24
e 21 25
e 21 26
e 22 25
e 23 24
e 24 52
e 24 53
e 25 26
e 27 28
e 27 41
e 27 96
e 27 103
e 27 104
e 27 145
e 28 145
e 29 30
e 29 107
e 29 108
e 29 114
e 30 106
e 30 107
e 30 109
e 31 32
e 31 35
e 31 36
e 31 71
e 31 83
e 31 95
e 31 143
e 31 153
e 32 36
e 32 135
e 32 139
e 33 82
e 33 136
e 33 142
e 33 143
e 34 71
e 34 85
e 34 97
e 34 139
e 34 155
e 35 37
e 35 71
e 35 83
e 35 84
e 35 85
e 35 153
e 36 38
e 36 71
e 36 135
e 37 84
e 37 141
e 37 153
e 38 71
e 38 135
e 39 42
e 39 55
e 39 58
e 39 61
e 39 62
e 40 41
e 40 46
e 40 56
e 40 57
e 40 59
e 40 96
e 40 129
e 40 151
e 41 56
e 41 61
e 41 62
e 41 96
e 41 103
e 42 55
e 42 58
e 42 61
e 43 47
e 43 49
e 43 50
e 43 51
e 43 53
e 43 80
e 44 46
e 44 48
e 44 49
e 44 51
e 45 50
e 45 52
e 46 49
e 46 50
e 46 51
e 46 52
e 46 53
e 46 60
e 46 81
e 46 129
e 46 151
e 47 49
e 47 80
e 47 81
e 48 49
e 48 51
e 49 51
e 49 81
e 50 51
e 50 52
e 50 53
e 52 53
e 53 80
e 53 81
e 54 59
e 54 86
e 54 103
e 54 128
e 55 58
e 56 57
e 56 61
e 58 61
e 58 62
e 59 61
e 59 62
e 59 103
e 59 128
e 59 129
e 60 86
e 60 116
e 60 128
e 60 129
e 61 62
e 62 103
e 63 64
e 63 65
e 63 66
e 63 67
e 64 65
e 65 66
e 65 67
e 65 104
e 65 105
e 65 125
e 66 67
e 68 70
e 68 74
e 68 76
e 68 77
e 68 93
e 68 95
e 68 112
e 69 84
e 69 85
e 69 140
e 69 141
e 70 74
e 70 93
e 70 146
e 71 85
e 71 139
e 72 73
e 72 74
e 73 74
e 74 75
e 74 100
e 74 112
e 74 123
e 74 130
e 74 131
e 74 146
e 74 149
e 76 77
e 76 95
e 76 112
e 76 139
e 76 143
e 77 112
e 78 79
e 78 130
e 78 133
e 78 146
e 79 146
e 80 81
e 82 136
e 82 140
e 82 142
e 83 153
e 84 85
e 85 140
e 85 155
e 86 87
e 86 88
e 86 89
e 86 116
e 86 128
e 86 158
e 87 88
e 87 89
e 87 90
e 87 91
e 87 158
e 88 91
e 89 90
e 89 158
e 90 158
e 92 93
e 92 94
e 92 95
e 93 94
e 93 95
e 94 95
e 95 143
e 96 98
e 96 100
e 96 118
e 96 121
e 96 123
e 96 151
e 97 139
e 97 155
e 98 99
e 98 100
e 98 101
e 98 102
e 98 118
e 98 120
e 98 122
e 98 124
e 99 100
e 99 101
e 99 119
e 99 123
e 99 126
e 99 127
e 99 156
e 100 123
e 100 149
e 101 102
e 101 126
e 102 117
e 102 124
e 102 126
e 103 159
e 104 125
e 105 125
e 105 137
e 106 107
e 106 109
e 106 110
e 106 111
e 106 112
e 107 111
e 107 114
e 108 109
e 108 113
e 108 114
e 109 111
e 109 112
e 109 113
e 109 114
e 110 111
e 111 114
e 112 139
e 112 149
e 112 152
e 113 114
e 115 116
e 117 119
e 117 156
e 118 121
e 118 122
e 119 121
e 119 123
e 119 156
e 119 157
e 120 122
e 120 124
e 120 157
e 121 123
e 121 157
e 122 157
e 125 137
e 126 127
e 126 156
e 127 156
e 128 129
e 130 131
e 130 133
e 130 134
e 130 146
e 131 134
e 132 133
e 132 134
e 135 139
e 136 139
e 136 140
e 136 143
e 137 144
e 139 143
e 140 141
e 140 142
e 140 155
e 141 142
e 141 153
e 141 154
e 142 143
e 142 154
e 143 154
e 146 147
e 148 150
e 148 151
e 149 151
e 149 152
e 150 151
e 151 152
e 153 154
c k 1
